n_res = 4;
rc = [ 0, 0, 0, 0 ];
n_tasks = 30;
d = [ 8, 9, 2, 5, 8, 2, 6, 1, 3, 6, 7, 8, 8, 7, 5, 7, 1, 4, 8, 5, 6, 3, 5, 6, 1, 10, 7, 3, 4, 4 ];
rr = [| 0, 0, 0, 0, 0, 0, 0, 0, 0, 0, 0, 0, 0, 0, 0, 0, 0, 0, 0, 0, 0, 0, 0, 0, 0, 0, 0, 0, 0, 0
      | 0, 0, 0, 0, 0, 0, 0, 0, 0, 0, 0, 0, 0, 0, 0, 0, 0, 0, 0, 0, 0, 0, 0, 0, 0, 0, 0, 0, 0, 0
      | 0, 0, 0, 0, 0, 0, 0, 0, 0, 0, 0, 0, 0, 0, 0, 0, 0, 0, 0, 0, 0, 0, 0, 0, 0, 0, 0, 0, 0, 0
      | 0, 0, 0, 0, 0, 0, 0, 0, 0, 0, 0, 0, 0, 0, 0, 0, 0, 0, 0, 0, 0, 0, 0, 0, 0, 0, 0, 0, 0, 0 |];
suc = [ { 6 },
       { 4, 8, 13 },
       { 5, 7, 10 },
       { 9, 14 },
       { 11, 21, 24 },
       { 13, 19, 21 },
       { 16 },
       { 12, 22, 23 },
       { 18, 19 },
       { 23, 25 },
       { 17 },
       { 28 },
       { 15 },
       { 15, 21, 22 },
       { 23, 24 },
       { 18, 20, 24 },
       { 19 },
       { 25, 26 },
       { 20, 26 },
       { 22, 25, 27 },
       { 29 },
       { 30 },
       { 26 },
       { 27 },
       { 29, 30 },
       { 27 },
       { 28, 29, 30 },
       {  },
       {  },
       {  } ];
